c User generated cnf file
p cnf 15 24
13 -10 5 0 
7 -2 14 0 
1 6 -9 0 
-15 1 7 0 
7 -14 5 0 
4 4 -11 0 
-11 1 2 0 
-9 8 11 0 
3 8 -11 0 
13 -15 5 0 
4 2 -9 0 
2 14 -3 0 
14 -13 12 0 
6 -4 15 0 
12 -5 5 0 
12 9 -8 0 
12 -2 7 0 
3 8 -14 0 
-6 13 9 0 
13 -4 3 0 
3 -6 9 0 
13 -6 4 0 
7 7 -12 0 
6 -5 8 0 
